47 10
41 33 28
45 25 43 83
76
26 12 49
75 24 53
5 16
9 68
7 2
50 77 55
11 63
80 66 82
46 79 13
19 54
71 23
27 52
44 74 38
78
20 29 57
40 30
37 31
35 6
59
69
18 61
42 21
32 48
70 3
67 60 56
72
36 39 81
51 64
22 34 73 62
14 65
15 4
8 17
1 0 58
